\* FantasyTeam *\
Maximize
OBJ: 239 x0 + 147 x1 + 80 x10 + 78 x100 + 72 x101 + 85 x102 + 75 x103
 + 53 x104 + 40 x105 + 58 x106 + 76 x107 + 87 x108 + 44 x109 + 96 x11 + 6 x110
 + 54 x111 + 65 x112 + 58 x113 + 39 x114 + 15 x115 + 87 x116 + 56 x117
 + 84 x118 + 93 x119 + 41 x12 + 5 x120 + 71 x121 + 94 x122 + 76 x123 + 45 x124
 + 54 x125 + 84 x126 + 95 x127 + 5 x128 + 83 x129 + 108 x13 + 44 x130
 + 26 x131 + 97 x132 + 82 x133 + 26 x134 + 56 x135 + 102 x136 + 45 x137
 + 9 x138 + 43 x139 + 115 x14 + 74 x140 + 84 x141 + 8 x142 + 43 x143 + 20 x144
 + 59 x145 + 60 x146 + 73 x147 + 23 x148 + 20 x149 + 144 x15 + 64 x150
 + 61 x151 + 65 x152 + 54 x153 + 63 x154 + 67 x155 + 40 x156 + 51 x157
 + 18 x158 + 59 x159 + 84 x16 + 40 x160 + 17 x161 + 47 x162 + 51 x163
 + 77 x164 + 75 x165 + 14 x166 + 22 x167 + 35 x168 + 58 x169 + 94 x17
 + 12 x170 + 26 x171 + 28 x172 + 58 x173 + 52 x174 + 68 x175 + 47 x176
 + 34 x177 + 34 x178 + 26 x179 + 132 x18 + 16 x180 + 72 x181 + 59 x182
 + 62 x183 + 37 x184 + 61 x185 + 40 x186 + 65 x187 + 39 x188 + 33 x189
 + 90 x19 + 26 x190 + 34 x191 + 16 x192 + 21 x193 + 59 x194 + 16 x195
 + 19 x196 + 43 x197 + 31 x198 + 63 x199 + 97 x2 + 130 x20 + 45 x200 + 55 x201
 + 61 x202 + 80 x203 + 34 x204 + 45 x205 + 55 x206 + 15 x207 + 41 x208
 + 48 x209 + 124 x21 + 38 x210 + 59 x211 + 40 x212 + 45 x213 + 34 x214
 + 25 x215 + 21 x216 + 36 x217 + 38 x218 + 29 x219 + 121 x22 + 10 x220
 + 28 x221 + 37 x222 + 59 x223 + 39 x224 + 48 x225 + 59 x226 + 43 x227
 + 52 x228 + 62 x229 + 48 x23 + 23 x230 + 19 x231 + 35 x232 + 27 x233
 + 24 x234 + 11 x235 + 3 x236 + 25 x237 + 27 x238 + 41 x239 + 118 x24
 + 26 x240 + 31 x241 + 20 x242 + 24 x243 + 30 x244 + 21 x245 + 14 x246
 + 20 x247 + x248 + 23 x249 + 93 x25 + 41 x250 + 42 x251 + 47 x252 + 21 x253
 - 2 x254 + 12 x255 + 5 x256 + 48 x257 + 10 x258 + 5 x259 + 84 x26 + 49 x260
 + 15 x262 + 6 x263 + 45 x264 + 45 x265 + 62 x266 + 27 x267 + 21 x268 + 7 x269
 + 101 x27 + 39 x270 + 16 x271 + 10 x272 + 18 x273 + 23 x274 + 19 x275
 + 8 x277 - 4 x278 + 46 x279 + 101 x28 + 5 x280 - x281 + 17 x282 + 16 x284
 + x285 + 24 x286 + 12 x287 + 17 x288 + 19 x289 + 106 x29 + 4 x290 + 2 x291
 + x293 + x294 + x295 + 18 x296 + 4 x297 + 6 x298 + 25 x299 + 188 x3 + 68 x30
 + x300 + 36 x302 + 4 x303 + x305 + 10 x306 + x307 + x309 + 106 x31 + x311
 + 3 x312 + x315 + 5 x316 + 57 x32 + x320 - 3 x323 + x325 + 2 x328 + 5 x329
 + 109 x33 + 2 x331 + 7 x333 + 4 x336 + x337 + 22 x34 + x340 + x342 + 73 x35
 + 60 x36 + 89 x37 + 83 x38 + 76 x39 + 99 x4 + 88 x40 + 67 x41 + 75 x42
 + 66 x43 + 44 x44 + 84 x45 + 90 x46 + 105 x47 + 84 x48 + 84 x49 + 157 x5
 + 70 x50 + 67 x51 + 34 x52 + 72 x53 + 60 x54 + 118 x55 + 45 x56 + 34 x57
 + 32 x58 + 21 x59 + 106 x6 + 99 x60 + 46 x61 + 108 x62 + 27 x63 + 72 x64
 + 88 x65 + 27 x66 + 62 x67 + 62 x68 + 84 x69 + 132 x7 + 97 x70 + 94 x71
 + 54 x72 + 59 x73 + 71 x74 + 118 x75 + 120 x76 + 76 x77 + 51 x78 + 63 x79
 + 115 x8 + 70 x80 + 71 x81 + 82 x82 + 94 x83 + 31 x84 + 141 x85 + 78 x86
 + 71 x87 + 67 x88 + 132 x89 + 128 x9 + 81 x90 + 102 x91 + 79 x92 + 51 x93
 + 82 x94 + 37 x95 + 48 x96 + 79 x97 + 48 x98 + 84 x99
Subject To
Cash: 18 x0 + 17 x1 + 15 x10 + 10 x100 + 10 x101 + 10 x102 + 10 x103 + 10 x104
 + 9 x105 + 9 x106 + 9 x107 + 9 x108 + 9 x109 + 14 x11 + 9 x110 + 9 x111
 + 9 x112 + 9 x113 + 9 x114 + 9 x115 + 9 x116 + 9 x117 + 9 x118 + 9 x119
 + 14 x12 + 9 x120 + 9 x121 + 9 x122 + 9 x123 + 9 x124 + 9 x125 + 9 x126
 + 9 x127 + 9 x128 + 9 x129 + 14 x13 + 8 x130 + 8 x131 + 8 x132 + 8 x133
 + 8 x134 + 8 x135 + 8 x136 + 8 x137 + 8 x138 + 8 x139 + 14 x14 + 8 x140
 + 8 x141 + 8 x142 + 8 x143 + 8 x144 + 8 x145 + 8 x146 + 8 x147 + 8 x148
 + 8 x149 + 14 x15 + 8 x150 + 8 x151 + 8 x152 + 8 x153 + 8 x154 + 8 x155
 + 8 x156 + 8 x157 + 7 x158 + 7 x159 + 14 x16 + 7 x160 + 7 x161 + 7 x162
 + 7 x163 + 7 x164 + 7 x165 + 7 x166 + 7 x167 + 7 x168 + 7 x169 + 14 x17
 + 7 x170 + 7 x171 + 7 x172 + 7 x173 + 7 x174 + 7 x175 + 7 x176 + 7 x177
 + 7 x178 + 7 x179 + 14 x18 + 7 x180 + 7 x181 + 7 x182 + 7 x183 + 7 x184
 + 7 x185 + 7 x186 + 7 x187 + 6 x188 + 6 x189 + 14 x19 + 6 x190 + 6 x191
 + 6 x192 + 6 x193 + 6 x194 + 6 x195 + 6 x196 + 6 x197 + 6 x198 + 6 x199
 + 17 x2 + 14 x20 + 6 x200 + 6 x201 + 6 x202 + 6 x203 + 6 x204 + 6 x205
 + 6 x206 + 6 x207 + 6 x208 + 6 x209 + 14 x21 + 6 x210 + 6 x211 + 6 x212
 + 6 x213 + 6 x214 + 5 x215 + 5 x216 + 5 x217 + 5 x218 + 5 x219 + 14 x22
 + 5 x220 + 5 x221 + 5 x222 + 5 x223 + 5 x224 + 5 x225 + 5 x226 + 5 x227
 + 5 x228 + 5 x229 + 13 x23 + 5 x230 + 5 x231 + 5 x232 + 5 x233 + 5 x234
 + 5 x235 + 5 x236 + 5 x237 + 5 x238 + 5 x239 + 13 x24 + 5 x240 + 5 x241
 + 4 x242 + 4 x243 + 4 x244 + 4 x245 + 4 x246 + 4 x247 + 4 x248 + 4 x249
 + 13 x25 + 4 x250 + 4 x251 + 4 x252 + 4 x253 + 4 x254 + 4 x255 + 4 x256
 + 4 x257 + 4 x258 + 4 x259 + 13 x26 + 4 x260 + 4 x261 + 4 x262 + 4 x263
 + 4 x264 + 4 x265 + 4 x266 + 4 x267 + 4 x268 + 4 x269 + 13 x27 + 4 x270
 + 4 x271 + 3 x272 + 3 x273 + 3 x274 + 3 x275 + 3 x276 + 3 x277 + 3 x278
 + 3 x279 + 13 x28 + 3 x280 + 3 x281 + 3 x282 + 3 x283 + 3 x284 + 3 x285
 + 3 x286 + 3 x287 + 3 x288 + 3 x289 + 13 x29 + 3 x290 + 3 x291 + 3 x292
 + 3 x293 + 2 x294 + 2 x295 + 2 x296 + 2 x297 + 2 x298 + 2 x299 + 17 x3
 + 13 x30 + 2 x300 + 2 x301 + 2 x302 + 2 x303 + 2 x304 + 2 x305 + 2 x306
 + 2 x307 + 2 x308 + 2 x309 + 13 x31 + 2 x310 + x311 + x312 + x313 + x314
 + x315 + x316 + x317 + x318 + x319 + 12 x32 + x320 + x321 + x322 + x323
 + x324 + x325 + x326 + x327 + x328 + x329 + 12 x33 + x330 + x331 + x332
 + x333 + x334 + x335 + x336 + x337 + x338 + x339 + 12 x34 + x340 + x341
 + x342 + 12 x35 + 12 x36 + 12 x37 + 12 x38 + 12 x39 + 16 x4 + 12 x40 + 12 x41
 + 11 x42 + 11 x43 + 11 x44 + 11 x45 + 11 x46 + 11 x47 + 11 x48 + 11 x49
 + 16 x5 + 11 x50 + 11 x51 + 11 x52 + 11 x53 + 11 x54 + 11 x55 + 11 x56
 + 11 x57 + 11 x58 + 11 x59 + 16 x6 + 11 x60 + 11 x61 + 11 x62 + 11 x63
 + 11 x64 + 11 x65 + 11 x66 + 11 x67 + 11 x68 + 11 x69 + 15 x7 + 11 x70
 + 11 x71 + 11 x72 + 11 x73 + 10 x74 + 10 x75 + 10 x76 + 10 x77 + 10 x78
 + 10 x79 + 15 x8 + 10 x80 + 10 x81 + 10 x82 + 10 x83 + 10 x84 + 10 x85
 + 10 x86 + 10 x87 + 10 x88 + 10 x89 + 15 x9 + 10 x90 + 10 x91 + 10 x92
 + 10 x93 + 10 x94 + 10 x95 + 10 x96 + 10 x97 + 10 x98 + 10 x99 <= 146
MI: x107 + x108 + x112 + x115 + x118 + x12 + x120 + x121 + x123 + x124 + x126
 + x127 + x128 + x130 + x131 + x132 + x14 + x140 + x145 + x147 + x149 + x152
 + x154 + x158 + x159 + x16 + x160 + x163 + x164 + x166 + x168 + x17 + x171
 + x173 + x175 + x18 + x180 + x181 + x182 + x184 + x191 + x192 + x196 + x197
 + x198 + x200 + x205 + x207 + x208 + x21 + x210 + x219 + x220 + x222 + x223
 + x224 + x226 + x229 + x230 + x240 + x241 + x242 + x245 + x246 + x247 + x253
 + x256 + x257 + x26 + x273 + x275 + x277 + x278 + x28 + x280 + x282 + x285
 + x287 + x293 + x295 + x296 + x3 + x303 + x305 + x31 + x310 + x312 + x315
 + x320 + x325 + x332 + x337 + x339 + x341 + x35 + x36 + x37 + x39 + x4 + x45
 + x51 + x52 + x53 + x54 + x65 + x66 + x67 + x72 + x73 + x74 + x8 + x83 + x84
 + x90 + x91 + x92 + x93 + x94 = 4
ST: x0 + x1 + x105 + x11 + x119 + x122 + x129 + x13 + x136 + x139 + x141
 + x142 + x143 + x146 + x15 + x155 + x162 + x165 + x170 + x176 + x178 + x179
 + x189 + x19 + x193 + x195 + x2 + x20 + x201 + x203 + x204 + x209 + x221
 + x235 + x248 + x260 + x268 + x274 + x290 + x298 + x30 + x307 + x311 + x316
 + x32 + x329 + x331 + x333 + x340 + x38 + x42 + x43 + x47 + x49 + x5 + x55
 + x56 + x57 + x6 + x64 + x68 + x70 + x71 + x75 + x76 + x85 + x86 + x87 + x88
 + x89 + x9 + x97 = 3
TW: x111 + x114 + x116 + x172 + x186 + x202 + x218 + x238 + x24 + x243 + x252
 + x255 + x266 + x288 + x299 + x300 + x302 + x304 + x306 + x308 + x309 + x313
 + x314 + x317 + x318 + x319 + x322 + x324 + x326 + x327 + x335 + x342 + x40
 + x46 + x60 + x78 + x81 = 1
VT: x10 + x100 + x101 + x102 + x103 + x104 + x106 + x109 + x110 + x113 + x117
 + x125 + x133 + x134 + x135 + x137 + x138 + x144 + x148 + x150 + x151 + x153
 + x156 + x157 + x161 + x167 + x169 + x174 + x177 + x183 + x185 + x187 + x188
 + x190 + x194 + x199 + x206 + x211 + x212 + x213 + x214 + x215 + x216 + x217
 + x22 + x225 + x227 + x228 + x23 + x231 + x232 + x233 + x234 + x236 + x237
 + x239 + x244 + x249 + x25 + x250 + x251 + x254 + x258 + x259 + x261 + x262
 + x263 + x264 + x265 + x267 + x269 + x27 + x270 + x271 + x272 + x276 + x279
 + x281 + x283 + x284 + x286 + x289 + x29 + x291 + x292 + x294 + x297 + x301
 + x321 + x323 + x328 + x33 + x330 + x334 + x336 + x338 + x34 + x41 + x44
 + x48 + x50 + x58 + x59 + x61 + x62 + x63 + x69 + x7 + x77 + x79 + x80 + x82
 + x95 + x96 + x98 + x99 = 3
Binaries
x0
x1
x10
x100
x101
x102
x103
x104
x105
x106
x107
x108
x109
x11
x110
x111
x112
x113
x114
x115
x116
x117
x118
x119
x12
x120
x121
x122
x123
x124
x125
x126
x127
x128
x129
x13
x130
x131
x132
x133
x134
x135
x136
x137
x138
x139
x14
x140
x141
x142
x143
x144
x145
x146
x147
x148
x149
x15
x150
x151
x152
x153
x154
x155
x156
x157
x158
x159
x16
x160
x161
x162
x163
x164
x165
x166
x167
x168
x169
x17
x170
x171
x172
x173
x174
x175
x176
x177
x178
x179
x18
x180
x181
x182
x183
x184
x185
x186
x187
x188
x189
x19
x190
x191
x192
x193
x194
x195
x196
x197
x198
x199
x2
x20
x200
x201
x202
x203
x204
x205
x206
x207
x208
x209
x21
x210
x211
x212
x213
x214
x215
x216
x217
x218
x219
x22
x220
x221
x222
x223
x224
x225
x226
x227
x228
x229
x23
x230
x231
x232
x233
x234
x235
x236
x237
x238
x239
x24
x240
x241
x242
x243
x244
x245
x246
x247
x248
x249
x25
x250
x251
x252
x253
x254
x255
x256
x257
x258
x259
x26
x260
x261
x262
x263
x264
x265
x266
x267
x268
x269
x27
x270
x271
x272
x273
x274
x275
x276
x277
x278
x279
x28
x280
x281
x282
x283
x284
x285
x286
x287
x288
x289
x29
x290
x291
x292
x293
x294
x295
x296
x297
x298
x299
x3
x30
x300
x301
x302
x303
x304
x305
x306
x307
x308
x309
x31
x310
x311
x312
x313
x314
x315
x316
x317
x318
x319
x32
x320
x321
x322
x323
x324
x325
x326
x327
x328
x329
x33
x330
x331
x332
x333
x334
x335
x336
x337
x338
x339
x34
x340
x341
x342
x35
x36
x37
x38
x39
x4
x40
x41
x42
x43
x44
x45
x46
x47
x48
x49
x5
x50
x51
x52
x53
x54
x55
x56
x57
x58
x59
x6
x60
x61
x62
x63
x64
x65
x66
x67
x68
x69
x7
x70
x71
x72
x73
x74
x75
x76
x77
x78
x79
x8
x80
x81
x82
x83
x84
x85
x86
x87
x88
x89
x9
x90
x91
x92
x93
x94
x95
x96
x97
x98
x99
End
